9174
9174
9174
9174
9174
9174
9033
9033
9033
9033
9033
9033
9033
9033
9033
9033
9033
9033
9033
9033
9033
9033
9033
9033
9033
9033
9033
9033
9033
9033
8675
8675
8675
8675
8675
8675
8675
8675
8675
8675
8675
8675
8624
8624
8624
8624
8624
8624
8624
8624
8624
8624
8624
8624
8624
8624
8624
8624
8624
8624
8624
8624
8624
8624
8624
8624
8624
8624
8624
8624
8624
8624
8624
8624
8624
8624
8624
8624
8624
8624
8624
8624
8624
8624
8624
8624
8624
8624
8624
8624
8624
8624
8624
8624
8624
8624
8624
8624
8624
8624
8624
8624
8624
8624
8624
8624
8624
8624
8624
8624
8624
8624
8624
8624
8624
8624
8624
8624
8624
8624
8624
8624
8624
8624
8624
8624
8624
8624
8624
8624
8624
8624
8624
8624
8624
8624
8624
8624
8624
8624
8624
8624
8624
8624
8624
8624
8624
8624
8624
8624
8624
8624
8624
8624
8624
8624
8624
8624
8624
8624
8624
8624
8624
8624
8624
8624
8624
8624
8624
8624
8624
8624
8624
8624
8624
8624
8624
8624
8624
8624
8624
8624
8624
8624
8624
8624
8624
8624
8624
8624
8624
8624
8624
8624
8624
8624
8624
8624
8624
8624
8624
8624
8624
8624
8624
8624
8624
8624
8624
8624
8624
8624
8624
8624
8624
8624
8624
8624
8624
8624
8624
8624
8624
8624
8624
8624
8624
8624
8624
8624
8624
8624
8624
8624
8624
8624
8624
8624
8624
8624
8624
8624
8624
8624
8624
8624
8624
8624
8624
8624
8624
8624
8624
8624
8624
8624
8624
8624
8624
8624
8624
8624
8624
8624
8624
8624
8624
8624
8624
8624
8624
8624
8624
8624
8624
8624
8624
8624
8624
8624
8624
8624
8624
8624
8624
8624
8624
8624
8624
8624
8624
8624
8624
8624
8624
8624
8624
8624
8624
8624
8624
8624
8624
8624
8624
8624
8624
8624
8624
8624
8624
8624
8624
8624
8624
8624
8624
8624
8624
8624
8624
8624
8624
8624
8624
8624
8624
8624
8624
8624
8624
8624
8624
8624
8624
8624
8214
8214
8214
8214
8214
8214
8214
8214
8214
8214
8214
8214
8214
8214
8214
8214
8214
8214
8214
8214
8214
8214
8214
8214
8214
8214
8214
8214
8214
8214
8214
8214
8214
8214
8214
8214
8214
8214
8214
8214
8214
8214
8214
8214
8214
8214
8214
8214
8214
8214
8214
8214
8214
8214
8214
8214
8214
8214
8214
8214
8214
8214
8214
8214
8214
8214
8214
8214
8214
8214
8214
8214
8214
8214
8214
8214
8214
8214
8214
8214
8214
8214
8214
8214
8214
8214
8214
8214
8214
8214
8214
8214
8214
8214
8214
8214
8214
8214
8214
8214
8214
8214
8214
8214
8214
8214
8214
8214
8214
8214
8214
8214
8214
8214
8214
8214
8214
8214
8214
8214
8214
8214
8214
8214
8214
8214
8214
8214
8214
8214
8214
8214
8214
8214
8214
8214
8214
8214
8214
8214
8214
8214
8214
8214
8214
8214
8214
8214
8214
8214
8214
8214
8214
8214
8214
8214
8214
8214
8214
8214
8214
8214
8214
8214
8214
8214
8214
8214
8214
8214
8214
8214
8214
8214
8214
8214
8214
8214
8214
8214
8214
8214
8214
8214
8214
8214
8214
8214
8214
8214
8214
8214
8214
8214
8214
8214
8214
8214
8214
8214
8214
8214
8214
8214
8214
8214
8214
8214
8214
8214
8214
8214
8214
8214
8214
8214
8214
8214
8214
8214
8214
8214
8214
8214
8214
8214
8214
8214
8214
8214
8214
8214
8214
8214
8214
8214
8214
8214
8214
8214
8214
8214
8214
8214
8214
8214
8214
8214
8214
8214
8214
8214
8214
8214
8214
8214
8214
8214
8214
8214
8214
8214
8214
8214
8214
8214
8214
8214
8214
8214
8214
8214
8214
8214
8214
8214
8214
8214
8214
8214
8214
8214
8214
8214
8214
8214
8214
8214
8214
8214
8214
8214
8214
8214
8214
8214
8214
8214
8214
8214
8214
8214
8214
8214
8214
8214
8214
8214
8214
8214
8214
8214
8214
8214
8214
8214
8214
8214
8214
8214
8214
8214
8214
8214
8214
8214
8214
8214
8214
8214
8214
8214
8214
8214
8214
8214
8214
8214
8214
8214
8214
8214
8214
8214
8214
8214
8214
8214
8214
8214
8214
8214
8214
8214
8214
8214
8214
8214
8214
8214
8214
8214
8214
8214
8214
8214
8214
8214
8214
8214
8214
8214
8214
8214
8214
8214
8214
8214
8214
8214
8214
8214
8214
8214
8214
8214
8214
8214
8214
8214
8214
8214
8214
8214
8214
8214
8214
8214
8214
8214
8214
8214
8214
8214
8214
8214
8214
8214
8214
8214
8214
8214
8214
8214
8214
8214
8214
8214
8214
8214
8214
8214
8214
8214
8214
8214
8214
8214
8214
8214
8214
8214
8214
8214
8214
8214
8214
8214
8214
8214
8214
8214
8214
8214
8214
8214
8214
8214
8214
8214
8214
8214
8214
8214
8214
8214
8214
8214
8214
8214
8214
8214
8214
8214
8214
8214
8214
8214
8214
8214
8214
8214
8214
8214
8214
8214
8214
8214
8214
8214
8214
8214
8214
8214
8214
8214
8214
8214
8214
8214
8214
8214
8214
8214
8214
8214
8214
8214
8214
8214
8214
8214
8214
8214
8214
8214
8214
8214
8214
8214
8214
8214
8214
8214
8214
8214
8214
8214
8214
8214
8214
8214
8214
8214
8214
8214
8214
8214
8214
8214
8214
8214
8214
8214
8214
8214
8214
8214
8214
8214
8214
8214
8214
8214
8214
8214
8214
8214
8214
8214
8214
8214
8214
8214
8214
8214
8214
8214
8214
8214
8214
8214
8214
8214
8214
8214
8214
8214
8214
8214
8214
8214
8214
8214
8214
8214
8214
8214
8214
8214
8214
8214
8214
8214
8214
8214
8214
8214
8214
8214
8214
8214
8214
8214
8214
8214
8214
8214
8214
8214
8214
8214
8214
8214
8214
8214
8214
8214
8214
8214
8214
8214
8214
8214
8214
8214
8214
8214
8214
8214
8214
8214
8214
8214
8214
8214
8214
8214
8214
8214
8214
8214
8214
8214
8214
8214
8214
8214
8214
8214
8214
8214
8214
8214
8214
8214
8214
8214
8214
8214
8214
8214
8214
8214
8214
8214
8214
8214
8214
8214
8214
8214
8214
8214
8214
8214
8214
8214
8214
8214
8214
8214
8214
8214
8214
8214
8214
8214
8214
8214
8214
8214
8214
8214
8214
8214
8214
8214
8214
8214
8214
8214
8214
8214
8214
8214
8214
8214
8214
8214
8214
8214
8214
8214
8214
8214
8214
8214
8214
8214
8214
8214
8214
8214
8214
8214
8214
8214
8214
8214
8214
8214
8214
8214
8214
8214
8214
8214
8214
8214
8214
8214
8214
8214
8214
8214
8214
8214
8214
8214
8214
8214
8214
8214
8214
8214
8214
8214
8214
8214
8214
8214
8214
8214
8214
8214
8214
8214
8214
8214
8214
8214
8214
8214
8214
8214
8214
8214
8214
8214
8214
8214
8214
8214
8214
8214
8214
8214
8214
8214
8214
8214
8214
8214
8214
8214
8214
8214
8214
8214
8214
8214
8214
8214
8214
8214
8214
8214
8214
8214
8214
8214
8214
8214
8214
8214
8214
8214
8214
8214
8214
8214
8214
8214
8214
8214
8214
8214
8214
8214
8214
8214
8214
8214
8214
8214
8214
8214
8214
8214
8214
8214
8214
8214
8214
8214
8214
8214
8214
8214
8214
8214
8214
8214
8214
8214
8214
8214
8214
8214
8214
8214
8214
8214
8214
8214
8214
8214
8214
8214
8214
8214
8214
8214
8214
8214
8214
8214
8214
8214
8214
8214
8214
8214
8214
8214
8214
8214
8214
8214
8214
8214
8214
8214
8214
8214
8214
8214
8214
8214
8214
8214
8214
8214
8214
8214
8214
8214
8214
8214
8214
8214
8214
8214
8214
8214
8214
8214
8214
8214
8214
8214
8214
8214
8214
8214
8214
8214
8214
8214
8214
8214
8214
8214
8214
8214
8214
8214
8214
8214
8214
8214
8214
8214
8214
8214
8214
8214
8214
8214
8214
8214
8214
8214
8214
8214
8214
8214
8214
8214
8214
8214
8214
8214
8214
8214
8214
8214
8214
8214
8214
8214
8214
8214
8214
8214
8214
8214
8214
8214
8214
8214
8214
8214
8214
8214
8214
8214
8214
8214
8214
8214
8214
8214
8214
8214
8214
8214
8214
8214
8214
8214
8214
8214
8214
8214
8214
8214
8214
8214
8214
8214
8214
8214
8214
8214
8214
8214
8214
8214
8214
8214
8214
8214
8214
8214
8214
8214
8214
8214
8214
8214
8214
8214
8214
8214
8214
8214
8214
8214
8214
8214
8214
8214
8214
8214
8214
8214
8214
8214
8214
8214
8214
8214
8214
8214
8214
8214
8214
8214
8214
8214
8214
8214
8214
8214
8214
8214
8214
8214
8214
8214
8214
8214
8214
8214
8214
8214
8214
8214
8214
8214
8214
8214
8214
8214
8214
8214
8214
8214
8214
8214
8214
8214
8214
8214
8214
8214
8214
8214
8214
8214
8214
8214
8214
8214
8214
8214
8214
8214
8214
8214
8214
8214
8214
8214
8214
8214
8214
8214
8214
8214
8214
8214
8214
8214
8214
8214
8214
8214
8214
8214
8214
8214
8214
8214
8214
8214
8214
8214
8214
8214
8214
8214
8214
8214
8214
8214
8214
8214
8214
8214
8214
8214
8214
8214
8214
8214
8214
8214
8214
8214
8214
8214
8214
8214
8214
8214
8214
8214
8214
8214
8214
8214
8214
8214
8214
8214
8214
8214
8214
8214
8214
8214
8214
8214
8214
8214
8214
8214
8214
8214
8214
8214
8214
8214
8214
8214
8214
8214
8214
8214
8214
8214
8214
8214
8214
8214
8214
8214
8214
8214
8214
8214
8214
8214
8214
8214
8214
8214
8214
8214
8214
8214
8214
8214
8214
8214
8214
8214
8214
8214
8214
8214
8214
8214
8214
8214
8214
8214
8214
8214
8214
8214
8214
8214
8214
8214
8214
8214
8214
8214
8214
8214
8214
8214
8214
8214
8214
8214
8214
8214
8214
8214
8214
8214
8214
8214
8214
8214
8214
8214
8214
8214
8214
8214
8214
8214
8214
8214
8214
8214
8214
8214
8214
8214
8214
8214
8214
8214
8214
8214
8214
8214
8214
8214
8214
8214
8214
8214
8214
8214
8214
8214
8214
8214
8214
8214
8214
8214
8214
8214
8214
8214
8214
8214
8214
8214
8214
8214
8214
8214
8214
8214
8214
8214
8214
8214
8214
8214
8214
8214
8214
8214
8214
8214
8214
8214
8214
8214
8214
8214
8214
8214
8214
8214
8214
8214
8214
8214
8214
8214
8214
8214
8214
8214
8214
8214
8214
8214
8214
8214
8214
8214
8214
8214
8214
8214
8214
8214
8214
8214
8214
8214
8214
8214
8214
8214
8214
8214
8214
8214
8214
8214
8214
8214
8214
8214
8214
8214
8214
8214
8214
8214
8214
8214
8214
8214
8214
8214
8214
8214
8214
8214
8214
8214
8214
8214
8214
8214
8214
8214
8214
8214
8214
8214
8214
8214
8214
8214
8214
8214
8214
8214
8214
8214
8214
8214
8214
8214
8214
8214
8214
8214
8214
8214
8214
8214
8214
8214
8214
8214
8214
8214
8214
8214
8214
8214
8214
8214
8214
8214
8214
8214
8214
8214
8214
8214
8214
8214
8214
8214
8214
8214
8214
8214
8214
8214
8214
8214
8214
8214
8214
8214
8214
8214
8214
8214
8214
8214
8214
8214
8214
8214
8214
8214
8214
8214
8214
8214
8214
8214
8214
8214
8214
8214
8214
8214
8214
8214
8214
8214
8214
8214
8214
8214
8214
8214
8214
8214
8214
8214
8214
8214
8214
8214
8214
8214
8214
8214
8214
8214
8214
8214
8214
8214
8214
8214
8214
8214
8214
8214
8214
8214
8214
8214
8214
8214
8214
8214
8214
8214
8214
8214
8214
8214
8214
8214
8214
8214
8214
8214
8214
8214
8214
8214
8214
8214
8214
8214
8214
8214
8214
8214
8214
8214
8214
8214
8214
8214
8214
8214
8214
8214
8214
8214
8214
8214
8214
8214
8214
8214
8214
8214
8214
8214
8214
8214
8214
8214
8214
8214
8214
8214
8214
8214
8214
8214
8214
8214
8214
8214
8214
8214
8214
8214
8214
8214
8214
8214
8214
8214
8214
8214
8214
8214
8214
8214
8214
8214
8214
8214
8214
8214
8214
8214
8214
8214
8214
8214
8214
8214
8214
8214
8214
8214
8214
8214
8214
8214
8214
8214
8214
8214
8214
8214
8214
8214
8214
8214
8214
8214
8214
8214
8214
8214
8214
8214
8214
8214
8214
8214
8214
8214
8214
8214
8214
8214
8214
8214
8214
8214
8214
